# Objective value = 1.6259360000000237e+04
I_0_0 1088
I_0_1 1.2869999999999916e+03
I_0_2 1.1519999999999422e+03
I_0_3 1.2769999999999839e+03
I_0_4 1.0979999999999798e+03
I_0_5 1.2919999999999973e+03
I_0_6 1.7289999999999959e+03
I_1_0 150
I_1_1 150
I_1_2 1.4999999999999997e+02
I_1_3 150
I_1_4 150
I_1_5 75
I_1_6 0
I_2_0 88
I_2_1 88
I_2_2 44
I_2_3 8.8000000000000014e+01
I_2_4 88
I_2_5 44.0000000000001
I_2_6 8.6153306710912148e-14
I_3_0 11
I_3_1 0
I_3_2 1.0999999999993303e+01
I_3_3 0
I_3_4 1.0999999999999998e+01
I_3_5 11.0000000000001
I_3_6 -9.8750868593455721e-14
I_4_0 20
I_4_1 10
I_4_2 0
I_4_3 20
I_4_4 1.0000000000003025e+01
I_4_5 2.0000000000003023e+01
I_4_6 1.0000000000003023e+01
I_5_0 42
I_5_1 4.1999999999994621e+01
I_5_2 4.2000000000000007e+01
I_5_3 42
I_5_4 42
I_5_5 4.2000000000000036e+01
I_5_6 0
I_6_0 39
I_6_1 7.0230763637407624e-12
I_6_2 3.9000000000007020e+01
I_6_3 1.6596390928214078e-11
I_6_4 3.9000000000016591e+01
I_6_5 39
I_6_6 0
I_7_0 118
I_7_1 59
I_7_2 118
I_7_3 5.9000000000000135e+01
I_7_4 1.1800000000000014e+02
I_7_5 5.8999999999999588e+01
I_7_6 9.5157215440622167e-13
I_8_0 77
I_8_1 77
I_8_2 77
I_8_3 77
I_8_4 77
I_8_5 77
I_8_6 0
I_9_0 54
I_9_1 6.9974204603746735e-12
I_9_2 5.4000000000057184e+01
I_9_3 0
I_9_4 54
I_9_5 54
I_9_6 -1.7763568394002505e-15
I_10_0 52
I_10_1 26
I_10_2 52
I_10_3 26
I_10_4 5.1999999999999993e+01
I_10_5 26
I_10_6 -2.2204460492503131e-15
q_1_0_0 75
q_1_0_1 75
q_1_0_2 0
q_1_0_3 0
q_1_0_4 0
q_1_0_5 0
q_1_1_0 0
q_1_1_1 0
q_1_1_2 7.5000000000000057e+01
q_1_1_3 75
q_1_1_4 0
q_1_1_5 0
q_1_2_0 0
q_1_2_1 0
q_1_2_2 0
q_1_2_3 0
q_1_2_4 0
q_1_2_5 0
q_1_3_0 0
q_1_3_1 0
q_1_3_2 0
q_1_3_3 0
q_1_3_4 0
q_1_3_5 0
q_1_4_0 0
q_1_4_1 0
q_1_4_2 0
q_1_4_3 0
q_1_4_4 0
q_1_4_5 0
q_2_0_0 44
q_2_0_1 0
q_2_0_2 0
q_2_0_3 0
q_2_0_4 8.8817841970012523e-16
q_2_0_5 0
q_2_1_0 0
q_2_1_1 0
q_2_1_2 0
q_2_1_3 44
q_2_1_4 1.6431300764452317e-13
q_2_1_5 0
q_2_2_0 0
q_2_2_1 0
q_2_2_2 88
q_2_2_3 -8.8817841970012523e-16
q_2_2_4 0
q_2_2_5 0
q_2_3_0 0
q_2_3_1 0
q_2_3_2 0
q_2_3_3 0
q_2_3_4 0
q_2_3_5 0
q_2_4_0 0
q_2_4_1 0
q_2_4_2 0
q_2_4_3 0
q_2_4_4 0
q_2_4_5 0
q_3_0_0 0
q_3_0_1 0
q_3_0_2 0
q_3_0_3 0
q_3_0_4 2.2204460492503131e-16
q_3_0_5 -1.9800827644189667e-13
q_3_1_0 0
q_3_1_1 21.9999999999826
q_3_1_2 0
q_3_1_3 -4.9960036108132044e-16
q_3_1_4 1.1000000000000110e+01
q_3_1_5 0
q_3_2_0 0
q_3_2_1 1.0707906783480325e-11
q_3_2_2 6.70044575379336e-12
q_3_2_3 22
q_3_2_4 0
q_3_2_5 0
q_3_3_0 0
q_3_3_1 0
q_3_3_2 0
q_3_3_3 0
q_3_3_4 0
q_3_3_5 0
q_3_4_0 0
q_3_4_1 0
q_3_4_2 0
q_3_4_3 0
q_3_4_4 0
q_3_4_5 0
q_4_0_0 0
q_4_0_1 0
q_4_0_2 0
q_4_0_3 3.0251356974986265e-12
q_4_0_4 0
q_4_0_5 0
q_4_1_0 0
q_4_1_1 0
q_4_1_2 0
q_4_1_3 0
q_4_1_4 20
q_4_1_5 0
q_4_2_0 0
q_4_2_1 0
q_4_2_2 30
q_4_2_3 0
q_4_2_4 0
q_4_2_5 0
q_4_3_0 0
q_4_3_1 0
q_4_3_2 0
q_4_3_3 0
q_4_3_4 0
q_4_3_5 0
q_4_4_0 0
q_4_4_1 0
q_4_4_2 0
q_4_4_3 0
q_4_4_4 0
q_4_4_5 0
q_5_0_0 0
q_5_0_1 0
q_5_0_2 4.1999999999999993e+01
q_5_0_3 0
q_5_0_4 4.2000000000000036e+01
q_5_0_5 0
q_5_1_0 4.1999999999994643e+01
q_5_1_1 0
q_5_1_2 0
q_5_1_3 0
q_5_1_4 0
q_5_1_5 0
q_5_2_0 0
q_5_2_1 4.2000000000005379e+01
q_5_2_2 0
q_5_2_3 0
q_5_2_4 0
q_5_2_5 0
q_5_3_0 0
q_5_3_1 0
q_5_3_2 0
q_5_3_3 42
q_5_3_4 0
q_5_3_5 0
q_5_4_0 0
q_5_4_1 0
q_5_4_2 0
q_5_4_3 0
q_5_4_4 0
q_5_4_5 0
q_6_0_0 0
q_6_0_1 0
q_6_0_2 0
q_6_0_3 78
q_6_0_4 0
q_6_0_5 0
q_6_1_0 0
q_6_1_1 0
q_6_1_2 0
q_6_1_3 0
q_6_1_4 3.8999999999980460e+01
q_6_1_5 0
q_6_2_0 0
q_6_2_1 0
q_6_2_2 9.5762286989042877e-12
q_6_2_3 0
q_6_2_4 1.5130119379591633e-12
q_6_2_5 3.5527136788005009e-15
q_6_3_0 0
q_6_3_1 78
q_6_3_2 0
q_6_3_3 0
q_6_3_4 1.4290790772975015e-12
q_6_3_5 0
q_6_4_0 7.0230763637407624e-12
q_6_4_1 0
q_6_4_2 0
q_6_4_3 0
q_6_4_4 0
q_6_4_5 0
q_7_0_0 0
q_7_0_1 0
q_7_0_2 0
q_7_0_3 0
q_7_0_4 0
q_7_0_5 1.3452294833626866e-12
q_7_1_0 0
q_7_1_1 0
q_7_1_2 0
q_7_1_3 0
q_7_1_4 0
q_7_1_5 0
q_7_2_0 0
q_7_2_1 0
q_7_2_2 1.2988221609333550e-13
q_7_2_3 0
q_7_2_4 -4.4337866711430252e-12
q_7_2_5 -4.4408920985006262e-15
q_7_3_0 0
q_7_3_1 0
q_7_3_2 0
q_7_3_3 0
q_7_3_4 3.8822278725092474e-12
q_7_3_5 2.1427304375265521e-14
q_7_4_0 0
q_7_4_1 118
q_7_4_2 0
q_7_4_3 118
q_7_4_4 0
q_7_4_5 -2.6645352591003757e-15
q_8_0_0 0
q_8_0_1 0
q_8_0_2 77
q_8_0_3 0
q_8_0_4 7.7000000000000014e+01
q_8_0_5 0
q_8_1_0 77
q_8_1_1 9.8224761657661475e-12
q_8_1_2 0
q_8_1_3 0
q_8_1_4 0
q_8_1_5 0
q_8_2_0 0
q_8_2_1 7.6999999999990180e+01
q_8_2_2 0
q_8_2_3 0
q_8_2_4 0
q_8_2_5 0
q_8_3_0 0
q_8_3_1 0
q_8_3_2 0
q_8_3_3 77
q_8_3_4 -4.2743586448068527e-15
q_8_3_5 0
q_8_4_0 0
q_8_4_1 0
q_8_4_2 0
q_8_4_3 0
q_8_4_4 0
q_8_4_5 0
q_9_0_0 0
q_9_0_1 0
q_9_0_2 0
q_9_0_3 0
q_9_0_4 0
q_9_0_5 1.0658141036401503e-14
q_9_1_0 6.9974204603746735e-12
q_9_1_1 1.0799999999998622e+02
q_9_1_2 0
q_9_1_3 0
q_9_1_4 54
q_9_1_5 0
q_9_2_0 0
q_9_2_1 6.3970884145447826e-11
q_9_2_2 -5.7185867152753644e-11
q_9_2_3 108
q_9_2_4 0
q_9_2_5 0
q_9_3_0 0
q_9_3_1 0
q_9_3_2 0
q_9_3_3 0
q_9_3_4 0
q_9_3_5 0
q_9_4_0 0
q_9_4_1 0
q_9_4_2 0
q_9_4_3 0
q_9_4_4 0
q_9_4_5 0
q_10_0_0 0
q_10_0_1 0
q_10_0_2 0
q_10_0_3 52
q_10_0_4 0
q_10_0_5 0
q_10_1_0 0
q_10_1_1 0
q_10_1_2 0
q_10_1_3 0
q_10_1_4 -8.8817841970012523e-16
q_10_1_5 3.5527136788005009e-15
q_10_2_0 0
q_10_2_1 0
q_10_2_2 0
q_10_2_3 0
q_10_2_4 0
q_10_2_5 0
q_10_3_0 0
q_10_3_1 52
q_10_3_2 0
q_10_3_3 0
q_10_3_4 0
q_10_3_5 -1.1102230246251565e-16
q_10_4_0 0
q_10_4_1 0
q_10_4_2 0
q_10_4_3 0
q_10_4_4 4.4408920985006262e-16
q_10_4_5 0
y_0_0_0 1
y_0_0_1 1
y_0_0_2 1
y_0_0_3 1
y_0_0_4 1
y_0_0_5 8.8616180365930219e-15
y_0_1_0 1
y_0_1_1 1
y_0_1_2 1
y_0_1_3 1
y_0_1_4 1
y_0_1_5 5.5511151231257827e-17
y_0_2_0 0
y_0_2_1 1
y_0_2_2 1
y_0_2_3 1
y_0_2_4 -2.2197521598599224e-14
y_0_2_5 0
y_0_3_0 0
y_0_3_1 1
y_0_3_2 0
y_0_3_3 1
y_0_3_4 0
y_0_3_5 5.5511151231257827e-17
y_0_4_0 5.3611269952219563e-14
y_0_4_1 1
y_0_4_2 0
y_0_4_3 1
y_0_4_4 0
y_0_4_5 0
y_1_0_0 1
y_1_0_1 1
y_1_0_2 0
y_1_0_3 0
y_1_0_4 0
y_1_0_5 0
y_1_1_0 0
y_1_1_1 0
y_1_1_2 1
y_1_1_3 1
y_1_1_4 0
y_1_1_5 0
y_1_2_0 0
y_1_2_1 0
y_1_2_2 0
y_1_2_3 0
y_1_2_4 0
y_1_2_5 0
y_1_3_0 0
y_1_3_1 0
y_1_3_2 0
y_1_3_3 0
y_1_3_4 0
y_1_3_5 0
y_1_4_0 0
y_1_4_1 0
y_1_4_2 0
y_1_4_3 0
y_1_4_4 0
y_1_4_5 0
y_2_0_0 1
y_2_0_1 0
y_2_0_2 0
y_2_0_3 0
y_2_0_4 0
y_2_0_5 0
y_2_1_0 0
y_2_1_1 0
y_2_1_2 0
y_2_1_3 1
y_2_1_4 2.1233015345956119e-15
y_2_1_5 0
y_2_2_0 0
y_2_2_1 0
y_2_2_2 1
y_2_2_3 0
y_2_2_4 0
y_2_2_5 0
y_2_3_0 0
y_2_3_1 0
y_2_3_2 0
y_2_3_3 0
y_2_3_4 0
y_2_3_5 0
y_2_4_0 0
y_2_4_1 0
y_2_4_2 0
y_2_4_3 0
y_2_4_4 0
y_2_4_5 0
y_3_0_0 0
y_3_0_1 0
y_3_0_2 0
y_3_0_3 0
y_3_0_4 1.3877787807814457e-17
y_3_0_5 -9.00386536162312e-15
y_3_1_0 0
y_3_1_1 9.9999999999920841e-01
y_3_1_2 0
y_3_1_3 -3.1225022567582528e-17
y_3_1_4 1
y_3_1_5 0
y_3_2_0 0
y_3_2_1 1.8229862064345070e-13
y_3_2_2 3.0456453331551003e-13
y_3_2_3 1
y_3_2_4 1.2463120813155371e-14
y_3_2_5 0
y_3_3_0 0
y_3_3_1 0
y_3_3_2 0
y_3_3_3 0
y_3_3_4 0
y_3_3_5 0
y_3_4_0 0
y_3_4_1 0
y_3_4_2 0
y_3_4_3 0
y_3_4_4 0
y_3_4_5 0
y_4_0_0 0
y_4_0_1 0
y_4_0_2 0
y_4_0_3 0
y_4_0_4 0
y_4_0_5 0
y_4_1_0 0
y_4_1_1 0
y_4_1_2 0
y_4_1_3 0
y_4_1_4 1
y_4_1_5 0
y_4_2_0 0
y_4_2_1 0
y_4_2_2 1
y_4_2_3 0
y_4_2_4 0
y_4_2_5 0
y_4_3_0 0
y_4_3_1 0
y_4_3_2 0
y_4_3_3 0
y_4_3_4 0
y_4_3_5 0
y_4_4_0 0
y_4_4_1 0
y_4_4_2 0
y_4_4_3 0
y_4_4_4 0
y_4_4_5 0
y_5_0_0 0
y_5_0_1 0
y_5_0_2 1
y_5_0_3 0
y_5_0_4 1
y_5_0_5 0
y_5_1_0 9.9999999999987244e-01
y_5_1_1 0
y_5_1_2 0
y_5_1_3 0
y_5_1_4 0
y_5_1_5 0
y_5_2_0 0
y_5_2_1 1.0000000000000002e+00
y_5_2_2 0
y_5_2_3 0
y_5_2_4 0
y_5_2_5 0
y_5_3_0 0
y_5_3_1 0
y_5_3_2 0
y_5_3_3 1
y_5_3_4 0
y_5_3_5 0
y_5_4_0 0
y_5_4_1 0
y_5_4_2 0
y_5_4_3 0
y_5_4_4 0
y_5_4_5 0
y_6_0_0 0
y_6_0_1 0
y_6_0_2 0
y_6_0_3 1
y_6_0_4 0
y_6_0_5 0
y_6_1_0 0
y_6_1_1 0
y_6_1_2 0
y_6_1_3 0
y_6_1_4 0.999999999999907
y_6_1_5 0
y_6_2_0 0
y_6_2_1 0
y_6_2_2 3.5741201664940547e-12
y_6_2_3 0
y_6_2_4 5.6038507167954776e-14
y_6_2_5 0
y_6_3_0 0
y_6_3_1 1
y_6_3_2 0
y_6_3_3 0
y_6_3_4 2.9656832545299494e-14
y_6_3_5 0
y_6_4_0 1.80078881121558e-13
y_6_4_1 0
y_6_4_2 0
y_6_4_3 0
y_6_4_4 0
y_6_4_5 0
y_7_0_0 0
y_7_0_1 0
y_7_0_2 0
y_7_0_3 0
y_7_0_4 1.3877787807814457e-17
y_7_0_5 1.2190769227427012e-15
y_7_1_0 0
y_7_1_1 0
y_7_1_2 0
y_7_1_3 0
y_7_1_4 0
y_7_1_5 0
y_7_2_0 0
y_7_2_1 0
y_7_2_2 -2.9988967038818704e-13
y_7_2_3 0
y_7_2_4 -3.3854863357163367e-14
y_7_2_5 -7.3617327511765751e-17
y_7_3_0 0
y_7_3_1 0
y_7_3_2 0
y_7_3_3 0
y_7_3_4 2.9677649227011216e-14
y_7_3_5 1.6783449630075609e-16
y_7_4_0 0
y_7_4_1 1
y_7_4_2 0
y_7_4_3 1
y_7_4_4 0
y_7_4_5 0
y_8_0_0 0
y_8_0_1 0
y_8_0_2 1
y_8_0_3 0
y_8_0_4 1.0000000000000002e+00
y_8_0_5 0
y_8_1_0 1
y_8_1_1 1.2756462552943049e-13
y_8_1_2 0
y_8_1_3 0
y_8_1_4 0
y_8_1_5 0
y_8_2_0 0
y_8_2_1 9.9999999999987244e-01
y_8_2_2 0
y_8_2_3 0
y_8_2_4 0
y_8_2_5 0
y_8_3_0 0
y_8_3_1 0
y_8_3_2 0
y_8_3_3 1
y_8_3_4 -5.5511151231257827e-17
y_8_3_5 0
y_8_4_0 0
y_8_4_1 0
y_8_4_2 0
y_8_4_3 0
y_8_4_4 0
y_8_4_5 0
y_9_0_0 0
y_9_0_1 0
y_9_0_2 0
y_9_0_3 0
y_9_0_4 0
y_9_0_5 -2.7755575615628914e-17
y_9_1_0 1.2958186037730877e-13
y_9_1_1 9.9999999999987244e-01
y_9_1_2 0
y_9_1_3 0
y_9_1_4 1
y_9_1_5 0
y_9_2_0 0
y_9_2_1 1.0026909857963062e-12
y_9_2_2 0
y_9_2_3 1
y_9_2_4 0
y_9_2_5 0
y_9_3_0 0
y_9_3_1 0
y_9_3_2 0
y_9_3_3 0
y_9_3_4 0
y_9_3_5 0
y_9_4_0 0
y_9_4_1 0
y_9_4_2 0
y_9_4_3 0
y_9_4_4 0
y_9_4_5 0
y_10_0_0 0
y_10_0_1 0
y_10_0_2 0
y_10_0_3 1
y_10_0_4 0
y_10_0_5 0
y_10_1_0 0
y_10_1_1 0
y_10_1_2 0
y_10_1_3 0
y_10_1_4 -2.7755575615628914e-17
y_10_1_5 0
y_10_2_0 0
y_10_2_1 0
y_10_2_2 0
y_10_2_3 0
y_10_2_4 0
y_10_2_5 0
y_10_3_0 0
y_10_3_1 1
y_10_3_2 0
y_10_3_3 0
y_10_3_4 -2.7755575615628914e-17
y_10_3_5 0
y_10_4_0 0
y_10_4_1 0
y_10_4_2 0
y_10_4_3 0
y_10_4_4 0
y_10_4_5 0
x_0_1_0_0 1
x_0_1_0_1 2
x_0_1_0_2 0
x_0_1_0_3 0
x_0_1_0_4 0
x_0_1_0_5 0
x_0_1_1_0 0
x_0_1_1_1 0
x_0_1_1_2 2
x_0_1_1_3 9.9999999999999978e-01
x_0_1_1_4 0
x_0_1_1_5 0
x_0_1_2_0 0
x_0_1_2_1 0
x_0_1_2_2 0
x_0_1_2_3 0
x_0_1_2_4 0
x_0_1_2_5 0
x_0_1_3_0 0
x_0_1_3_1 0
x_0_1_3_2 0
x_0_1_3_3 0
x_0_1_3_4 0
x_0_1_3_5 0
x_0_1_4_0 0
x_0_1_4_1 0
x_0_1_4_2 0
x_0_1_4_3 0
x_0_1_4_4 0
x_0_1_4_5 0
x_0_2_0_0 1
x_0_2_0_1 0
x_0_2_0_2 0
x_0_2_0_3 0
x_0_2_0_4 4.1633363423443370e-17
x_0_2_0_5 0
x_0_2_1_0 0
x_0_2_1_1 0
x_0_2_1_2 0
x_0_2_1_3 1
x_0_2_1_4 2.1233015345956119e-15
x_0_2_1_5 0
x_0_2_2_0 0
x_0_2_2_1 0
x_0_2_2_2 1
x_0_2_2_3 0
x_0_2_2_4 0
x_0_2_2_5 0
x_0_2_3_0 0
x_0_2_3_1 0
x_0_2_3_2 0
x_0_2_3_3 0
x_0_2_3_4 0
x_0_2_3_5 0
x_0_2_4_0 0
x_0_2_4_1 0
x_0_2_4_2 0
x_0_2_4_3 0
x_0_2_4_4 0
x_0_2_4_5 0
x_0_3_0_0 0
x_0_3_0_1 0
x_0_3_0_2 0
x_0_3_0_3 0
x_0_3_0_4 0
x_0_3_0_5 0
x_0_3_1_0 0
x_0_3_1_1 9.9999999999920841e-01
x_0_3_1_2 0
x_0_3_1_3 0
x_0_3_1_4 9.9999999999999922e-01
x_0_3_1_5 0
x_0_3_2_0 0
x_0_3_2_1 0
x_0_3_2_2 6.0912906663102007e-13
x_0_3_2_3 1
x_0_3_2_4 2.4185514702068645e-14
x_0_3_2_5 5.1933284062055662e-17
x_0_3_3_0 0
x_0_3_3_1 0
x_0_3_3_2 0
x_0_3_3_3 0
x_0_3_3_4 0
x_0_3_3_5 0
x_0_3_4_0 0
x_0_3_4_1 0
x_0_3_4_2 0
x_0_3_4_3 0
x_0_3_4_4 0
x_0_3_4_5 0
x_0_4_0_0 0
x_0_4_0_1 0
x_0_4_0_2 0
x_0_4_0_3 0
x_0_4_0_4 0
x_0_4_0_5 0
x_0_4_1_0 0
x_0_4_1_1 0
x_0_4_1_2 0
x_0_4_1_3 0
x_0_4_1_4 1.0000000000000913e+00
x_0_4_1_5 0
x_0_4_2_0 0
x_0_4_2_1 0
x_0_4_2_2 9.9999999999999989e-01
x_0_4_2_3 0
x_0_4_2_4 0
x_0_4_2_5 0
x_0_4_3_0 0
x_0_4_3_1 0
x_0_4_3_2 0
x_0_4_3_3 0
x_0_4_3_4 0
x_0_4_3_5 0
x_0_4_4_0 0
x_0_4_4_1 0
x_0_4_4_2 0
x_0_4_4_3 0
x_0_4_4_4 0
x_0_4_4_5 0
x_0_5_0_0 0
x_0_5_0_1 0
x_0_5_0_2 1
x_0_5_0_3 0
x_0_5_0_4 9.9999999999999967e-01
x_0_5_0_5 0
x_0_5_1_0 9.9999999999987232e-01
x_0_5_1_1 0
x_0_5_1_2 0
x_0_5_1_3 0
x_0_5_1_4 0
x_0_5_1_5 0
x_0_5_2_0 0
x_0_5_2_1 9.9999999999930766e-01
x_0_5_2_2 0
x_0_5_2_3 0
x_0_5_2_4 0
x_0_5_2_5 7.9688859677684576e-17
x_0_5_3_0 0
x_0_5_3_1 0
x_0_5_3_2 0
x_0_5_3_3 1
x_0_5_3_4 -1.1102230246251565e-16
x_0_5_3_5 0
x_0_5_4_0 -1.2646761116933844e-13
x_0_5_4_1 0
x_0_5_4_2 0
x_0_5_4_3 0
x_0_5_4_4 0
x_0_5_4_5 0
x_0_6_0_0 0
x_0_6_0_1 0
x_0_6_0_2 0
x_0_6_0_3 1
x_0_6_0_4 0
x_0_6_0_5 0
x_0_6_1_0 0
x_0_6_1_1 0
x_0_6_1_2 0
x_0_6_1_3 0
x_0_6_1_4 0
x_0_6_1_5 0
x_0_6_2_0 0
x_0_6_2_1 0
x_0_6_2_2 0
x_0_6_2_3 0
x_0_6_2_4 0
x_0_6_2_5 0
x_0_6_3_0 0
x_0_6_3_1 1
x_0_6_3_2 0
x_0_6_3_3 0
x_0_6_3_4 0
x_0_6_3_5 0
x_0_6_4_0 3.60157762243116e-13
x_0_6_4_1 0
x_0_6_4_2 0
x_0_6_4_3 0
x_0_6_4_4 0
x_0_6_4_5 0
x_0_7_0_0 0
x_0_7_0_1 0
x_0_7_0_2 0
x_0_7_0_3 0
x_0_7_0_4 0
x_0_7_0_5 2.05013957199629e-14
x_0_7_1_0 0
x_0_7_1_1 0
x_0_7_1_2 0
x_0_7_1_3 0
x_0_7_1_4 0
x_0_7_1_5 0
x_0_7_2_0 0
x_0_7_2_1 0
x_0_7_2_2 -5.9977934077637407e-13
x_0_7_2_3 0
x_0_7_2_4 0
x_0_7_2_5 -1.5937771935536915e-16
x_0_7_3_0 0
x_0_7_3_1 0
x_0_7_3_2 0
x_0_7_3_3 0
x_0_7_3_4 3.6644298706534073e-14
x_0_7_3_5 1.1102230246251565e-16
x_0_7_4_0 -1.2646761116933844e-13
x_0_7_4_1 2
x_0_7_4_2 0
x_0_7_4_3 2
x_0_7_4_4 0
x_0_7_4_5 0
x_0_8_0_0 0
x_0_8_0_1 0
x_0_8_0_2 1
x_0_8_0_3 0
x_0_8_0_4 1.0000000000000002e+00
x_0_8_0_5 0
x_0_8_1_0 9.9999999999999956e-01
x_0_8_1_1 2.5512925105886097e-13
x_0_8_1_2 0
x_0_8_1_3 0
x_0_8_1_4 0
x_0_8_1_5 0
x_0_8_2_0 0
x_0_8_2_1 0.99999999999969
x_0_8_2_2 0
x_0_8_2_3 0
x_0_8_2_4 -6.8417493892525272e-14
x_0_8_2_5 0
x_0_8_3_0 0
x_0_8_3_1 0
x_0_8_3_2 0
x_0_8_3_3 1
x_0_8_3_4 -3.6678993176053609e-14
x_0_8_3_5 0
x_0_8_4_0 0
x_0_8_4_1 0
x_0_8_4_2 0
x_0_8_4_3 0
x_0_8_4_4 0
x_0_8_4_5 0
x_0_9_0_0 0
x_0_9_0_1 0
x_0_9_0_2 0
x_0_9_0_3 0
x_0_9_0_4 0
x_0_9_0_5 0
x_0_9_1_0 1.2800871473928055e-13
x_0_9_1_1 1.0000000000005358e+00
x_0_9_1_2 0
x_0_9_1_3 0
x_0_9_1_4 4.4408920985006262e-16
x_0_9_1_5 0
x_0_9_2_0 0
x_0_9_2_1 1.0023197549724472e-12
x_0_9_2_2 0
x_0_9_2_3 1
x_0_9_2_4 0
x_0_9_2_5 0
x_0_9_3_0 0
x_0_9_3_1 0
x_0_9_3_2 0
x_0_9_3_3 0
x_0_9_3_4 0
x_0_9_3_5 0
x_0_9_4_0 0
x_0_9_4_1 0
x_0_9_4_2 0
x_0_9_4_3 0
x_0_9_4_4 0
x_0_9_4_5 0
x_0_10_0_0 0
x_0_10_0_1 0
x_0_10_0_2 0
x_0_10_0_3 1
x_0_10_0_4 0
x_0_10_0_5 0
x_0_10_1_0 0
x_0_10_1_1 0
x_0_10_1_2 0
x_0_10_1_3 0
x_0_10_1_4 0
x_0_10_1_5 0
x_0_10_2_0 0
x_0_10_2_1 0
x_0_10_2_2 0
x_0_10_2_3 0
x_0_10_2_4 0
x_0_10_2_5 0
x_0_10_3_0 0
x_0_10_3_1 1
x_0_10_3_2 0
x_0_10_3_3 0
x_0_10_3_4 0
x_0_10_3_5 0
x_0_10_4_0 0
x_0_10_4_1 0
x_0_10_4_2 0
x_0_10_4_3 0
x_0_10_4_4 0
x_0_10_4_5 0
x_1_2_0_0 1
x_1_2_0_1 0
x_1_2_0_2 0
x_1_2_0_3 0
x_1_2_0_4 0
x_1_2_0_5 0
x_1_2_1_0 0
x_1_2_1_1 0
x_1_2_1_2 0
x_1_2_1_3 1
x_1_2_1_4 0
x_1_2_1_5 0
x_1_2_2_0 0
x_1_2_2_1 0
x_1_2_2_2 0
x_1_2_2_3 0
x_1_2_2_4 0
x_1_2_2_5 0
x_1_2_3_0 0
x_1_2_3_1 0
x_1_2_3_2 0
x_1_2_3_3 0
x_1_2_3_4 0
x_1_2_3_5 0
x_1_2_4_0 0
x_1_2_4_1 0
x_1_2_4_2 0
x_1_2_4_3 0
x_1_2_4_4 0
x_1_2_4_5 0
x_1_3_0_0 0
x_1_3_0_1 0
x_1_3_0_2 0
x_1_3_0_3 0
x_1_3_0_4 0
x_1_3_0_5 0
x_1_3_1_0 0
x_1_3_1_1 0
x_1_3_1_2 0
x_1_3_1_3 -6.2450045135165055e-17
x_1_3_1_4 0
x_1_3_1_5 0
x_1_3_2_0 0
x_1_3_2_1 0
x_1_3_2_2 0
x_1_3_2_3 0
x_1_3_2_4 0
x_1_3_2_5 0
x_1_3_3_0 0
x_1_3_3_1 0
x_1_3_3_2 0
x_1_3_3_3 0
x_1_3_3_4 0
x_1_3_3_5 0
x_1_3_4_0 0
x_1_3_4_1 0
x_1_3_4_2 0
x_1_3_4_3 0
x_1_3_4_4 0
x_1_3_4_5 0
x_1_4_0_0 0
x_1_4_0_1 0
x_1_4_0_2 0
x_1_4_0_3 0
x_1_4_0_4 0
x_1_4_0_5 0
x_1_4_1_0 0
x_1_4_1_1 0
x_1_4_1_2 0
x_1_4_1_3 0
x_1_4_1_4 0
x_1_4_1_5 0
x_1_4_2_0 0
x_1_4_2_1 0
x_1_4_2_2 0
x_1_4_2_3 0
x_1_4_2_4 0
x_1_4_2_5 0
x_1_4_3_0 0
x_1_4_3_1 0
x_1_4_3_2 0
x_1_4_3_3 0
x_1_4_3_4 0
x_1_4_3_5 0
x_1_4_4_0 0
x_1_4_4_1 0
x_1_4_4_2 0
x_1_4_4_3 0
x_1_4_4_4 0
x_1_4_4_5 0
x_1_5_0_0 0
x_1_5_0_1 0
x_1_5_0_2 0
x_1_5_0_3 0
x_1_5_0_4 0
x_1_5_0_5 0
x_1_5_1_0 0
x_1_5_1_1 0
x_1_5_1_2 0
x_1_5_1_3 0
x_1_5_1_4 0
x_1_5_1_5 0
x_1_5_2_0 0
x_1_5_2_1 0
x_1_5_2_2 0
x_1_5_2_3 0
x_1_5_2_4 0
x_1_5_2_5 0
x_1_5_3_0 0
x_1_5_3_1 0
x_1_5_3_2 0
x_1_5_3_3 0
x_1_5_3_4 0
x_1_5_3_5 0
x_1_5_4_0 0
x_1_5_4_1 0
x_1_5_4_2 0
x_1_5_4_3 0
x_1_5_4_4 0
x_1_5_4_5 0
x_1_6_0_0 0
x_1_6_0_1 0
x_1_6_0_2 0
x_1_6_0_3 0
x_1_6_0_4 0
x_1_6_0_5 0
x_1_6_1_0 0
x_1_6_1_1 0
x_1_6_1_2 0
x_1_6_1_3 0
x_1_6_1_4 0
x_1_6_1_5 0
x_1_6_2_0 0
x_1_6_2_1 0
x_1_6_2_2 0
x_1_6_2_3 0
x_1_6_2_4 0
x_1_6_2_5 0
x_1_6_3_0 0
x_1_6_3_1 0
x_1_6_3_2 0
x_1_6_3_3 0
x_1_6_3_4 0
x_1_6_3_5 0
x_1_6_4_0 0
x_1_6_4_1 0
x_1_6_4_2 0
x_1_6_4_3 0
x_1_6_4_4 0
x_1_6_4_5 0
x_1_7_0_0 0
x_1_7_0_1 0
x_1_7_0_2 0
x_1_7_0_3 0
x_1_7_0_4 0
x_1_7_0_5 0
x_1_7_1_0 0
x_1_7_1_1 0
x_1_7_1_2 0
x_1_7_1_3 0
x_1_7_1_4 0
x_1_7_1_5 0
x_1_7_2_0 0
x_1_7_2_1 0
x_1_7_2_2 0
x_1_7_2_3 0
x_1_7_2_4 0
x_1_7_2_5 0
x_1_7_3_0 0
x_1_7_3_1 0
x_1_7_3_2 0
x_1_7_3_3 0
x_1_7_3_4 0
x_1_7_3_5 0
x_1_7_4_0 0
x_1_7_4_1 0
x_1_7_4_2 0
x_1_7_4_3 0
x_1_7_4_4 0
x_1_7_4_5 0
x_1_8_0_0 0
x_1_8_0_1 0
x_1_8_0_2 0
x_1_8_0_3 0
x_1_8_0_4 0
x_1_8_0_5 0
x_1_8_1_0 0
x_1_8_1_1 0
x_1_8_1_2 0
x_1_8_1_3 0
x_1_8_1_4 0
x_1_8_1_5 0
x_1_8_2_0 0
x_1_8_2_1 0
x_1_8_2_2 0
x_1_8_2_3 0
x_1_8_2_4 0
x_1_8_2_5 0
x_1_8_3_0 0
x_1_8_3_1 0
x_1_8_3_2 0
x_1_8_3_3 0
x_1_8_3_4 0
x_1_8_3_5 0
x_1_8_4_0 0
x_1_8_4_1 0
x_1_8_4_2 0
x_1_8_4_3 0
x_1_8_4_4 0
x_1_8_4_5 0
x_1_9_0_0 0
x_1_9_0_1 0
x_1_9_0_2 0
x_1_9_0_3 0
x_1_9_0_4 0
x_1_9_0_5 0
x_1_9_1_0 0
x_1_9_1_1 0
x_1_9_1_2 0
x_1_9_1_3 0
x_1_9_1_4 0
x_1_9_1_5 0
x_1_9_2_0 0
x_1_9_2_1 0
x_1_9_2_2 0
x_1_9_2_3 0
x_1_9_2_4 0
x_1_9_2_5 0
x_1_9_3_0 0
x_1_9_3_1 0
x_1_9_3_2 0
x_1_9_3_3 0
x_1_9_3_4 0
x_1_9_3_5 0
x_1_9_4_0 0
x_1_9_4_1 0
x_1_9_4_2 0
x_1_9_4_3 0
x_1_9_4_4 0
x_1_9_4_5 0
x_1_10_0_0 0
x_1_10_0_1 0
x_1_10_0_2 0
x_1_10_0_3 0
x_1_10_0_4 0
x_1_10_0_5 0
x_1_10_1_0 0
x_1_10_1_1 0
x_1_10_1_2 0
x_1_10_1_3 0
x_1_10_1_4 0
x_1_10_1_5 0
x_1_10_2_0 0
x_1_10_2_1 0
x_1_10_2_2 0
x_1_10_2_3 0
x_1_10_2_4 0
x_1_10_2_5 0
x_1_10_3_0 0
x_1_10_3_1 0
x_1_10_3_2 0
x_1_10_3_3 0
x_1_10_3_4 0
x_1_10_3_5 0
x_1_10_4_0 0
x_1_10_4_1 0
x_1_10_4_2 0
x_1_10_4_3 0
x_1_10_4_4 0
x_1_10_4_5 0
x_2_3_0_0 0
x_2_3_0_1 0
x_2_3_0_2 0
x_2_3_0_3 0
x_2_3_0_4 0
x_2_3_0_5 0
x_2_3_1_0 0
x_2_3_1_1 0
x_2_3_1_2 0
x_2_3_1_3 0
x_2_3_1_4 0
x_2_3_1_5 0
x_2_3_2_0 0
x_2_3_2_1 0
x_2_3_2_2 0
x_2_3_2_3 0
x_2_3_2_4 0
x_2_3_2_5 0
x_2_3_3_0 0
x_2_3_3_1 0
x_2_3_3_2 0
x_2_3_3_3 0
x_2_3_3_4 0
x_2_3_3_5 0
x_2_3_4_0 0
x_2_3_4_1 0
x_2_3_4_2 0
x_2_3_4_3 0
x_2_3_4_4 0
x_2_3_4_5 0
x_2_4_0_0 0
x_2_4_0_1 0
x_2_4_0_2 0
x_2_4_0_3 0
x_2_4_0_4 0
x_2_4_0_5 0
x_2_4_1_0 0
x_2_4_1_1 0
x_2_4_1_2 0
x_2_4_1_3 0
x_2_4_1_4 2.1233015345956119e-15
x_2_4_1_5 0
x_2_4_2_0 0
x_2_4_2_1 0
x_2_4_2_2 1
x_2_4_2_3 0
x_2_4_2_4 0
x_2_4_2_5 0
x_2_4_3_0 0
x_2_4_3_1 0
x_2_4_3_2 0
x_2_4_3_3 0
x_2_4_3_4 0
x_2_4_3_5 0
x_2_4_4_0 0
x_2_4_4_1 0
x_2_4_4_2 0
x_2_4_4_3 0
x_2_4_4_4 0
x_2_4_4_5 0
x_2_5_0_0 0
x_2_5_0_1 0
x_2_5_0_2 0
x_2_5_0_3 0
x_2_5_0_4 -1.1102230246251565e-16
x_2_5_0_5 0
x_2_5_1_0 0
x_2_5_1_1 0
x_2_5_1_2 0
x_2_5_1_3 0
x_2_5_1_4 0
x_2_5_1_5 0
x_2_5_2_0 0
x_2_5_2_1 0
x_2_5_2_2 0
x_2_5_2_3 0
x_2_5_2_4 0
x_2_5_2_5 0
x_2_5_3_0 0
x_2_5_3_1 0
x_2_5_3_2 0
x_2_5_3_3 0
x_2_5_3_4 0
x_2_5_3_5 0
x_2_5_4_0 0
x_2_5_4_1 0
x_2_5_4_2 0
x_2_5_4_3 0
x_2_5_4_4 0
x_2_5_4_5 0
x_2_6_0_0 0
x_2_6_0_1 0
x_2_6_0_2 0
x_2_6_0_3 0
x_2_6_0_4 0
x_2_6_0_5 0
x_2_6_1_0 0
x_2_6_1_1 0
x_2_6_1_2 0
x_2_6_1_3 0
x_2_6_1_4 0
x_2_6_1_5 0
x_2_6_2_0 0
x_2_6_2_1 0
x_2_6_2_2 0
x_2_6_2_3 0
x_2_6_2_4 0
x_2_6_2_5 0
x_2_6_3_0 0
x_2_6_3_1 0
x_2_6_3_2 0
x_2_6_3_3 0
x_2_6_3_4 0
x_2_6_3_5 0
x_2_6_4_0 0
x_2_6_4_1 0
x_2_6_4_2 0
x_2_6_4_3 0
x_2_6_4_4 0
x_2_6_4_5 0
x_2_7_0_0 0
x_2_7_0_1 0
x_2_7_0_2 0
x_2_7_0_3 0
x_2_7_0_4 0
x_2_7_0_5 0
x_2_7_1_0 0
x_2_7_1_1 0
x_2_7_1_2 0
x_2_7_1_3 0
x_2_7_1_4 0
x_2_7_1_5 0
x_2_7_2_0 0
x_2_7_2_1 0
x_2_7_2_2 0
x_2_7_2_3 0
x_2_7_2_4 0
x_2_7_2_5 0
x_2_7_3_0 0
x_2_7_3_1 0
x_2_7_3_2 0
x_2_7_3_3 0
x_2_7_3_4 0
x_2_7_3_5 0
x_2_7_4_0 0
x_2_7_4_1 0
x_2_7_4_2 0
x_2_7_4_3 0
x_2_7_4_4 0
x_2_7_4_5 0
x_2_8_0_0 0
x_2_8_0_1 0
x_2_8_0_2 0
x_2_8_0_3 0
x_2_8_0_4 0
x_2_8_0_5 0
x_2_8_1_0 0
x_2_8_1_1 0
x_2_8_1_2 0
x_2_8_1_3 0
x_2_8_1_4 0
x_2_8_1_5 0
x_2_8_2_0 0
x_2_8_2_1 0
x_2_8_2_2 0
x_2_8_2_3 0
x_2_8_2_4 0
x_2_8_2_5 0
x_2_8_3_0 0
x_2_8_3_1 0
x_2_8_3_2 0
x_2_8_3_3 0
x_2_8_3_4 0
x_2_8_3_5 0
x_2_8_4_0 0
x_2_8_4_1 0
x_2_8_4_2 0
x_2_8_4_3 0
x_2_8_4_4 0
x_2_8_4_5 0
x_2_9_0_0 0
x_2_9_0_1 0
x_2_9_0_2 0
x_2_9_0_3 0
x_2_9_0_4 0
x_2_9_0_5 0
x_2_9_1_0 0
x_2_9_1_1 0
x_2_9_1_2 0
x_2_9_1_3 0
x_2_9_1_4 0
x_2_9_1_5 0
x_2_9_2_0 0
x_2_9_2_1 0
x_2_9_2_2 0
x_2_9_2_3 0
x_2_9_2_4 0
x_2_9_2_5 0
x_2_9_3_0 0
x_2_9_3_1 0
x_2_9_3_2 0
x_2_9_3_3 0
x_2_9_3_4 0
x_2_9_3_5 0
x_2_9_4_0 0
x_2_9_4_1 0
x_2_9_4_2 0
x_2_9_4_3 0
x_2_9_4_4 0
x_2_9_4_5 0
x_2_10_0_0 0
x_2_10_0_1 0
x_2_10_0_2 0
x_2_10_0_3 0
x_2_10_0_4 0
x_2_10_0_5 0
x_2_10_1_0 0
x_2_10_1_1 0
x_2_10_1_2 0
x_2_10_1_3 0
x_2_10_1_4 0
x_2_10_1_5 0
x_2_10_2_0 0
x_2_10_2_1 0
x_2_10_2_2 0
x_2_10_2_3 0
x_2_10_2_4 0
x_2_10_2_5 0
x_2_10_3_0 0
x_2_10_3_1 0
x_2_10_3_2 0
x_2_10_3_3 0
x_2_10_3_4 0
x_2_10_3_5 0
x_2_10_4_0 0
x_2_10_4_1 0
x_2_10_4_2 0
x_2_10_4_3 0
x_2_10_4_4 0
x_2_10_4_5 0
x_3_4_0_0 0
x_3_4_0_1 0
x_3_4_0_2 0
x_3_4_0_3 0
x_3_4_0_4 0
x_3_4_0_5 0
x_3_4_1_0 0
x_3_4_1_1 0
x_3_4_1_2 0
x_3_4_1_3 0
x_3_4_1_4 0
x_3_4_1_5 0
x_3_4_2_0 0
x_3_4_2_1 0
x_3_4_2_2 0
x_3_4_2_3 0
x_3_4_2_4 0
x_3_4_2_5 0
x_3_4_3_0 0
x_3_4_3_1 0
x_3_4_3_2 0
x_3_4_3_3 0
x_3_4_3_4 0
x_3_4_3_5 0
x_3_4_4_0 0
x_3_4_4_1 0
x_3_4_4_2 0
x_3_4_4_3 0
x_3_4_4_4 0
x_3_4_4_5 0
x_3_5_0_0 0
x_3_5_0_1 0
x_3_5_0_2 0
x_3_5_0_3 0
x_3_5_0_4 1.3877787807814457e-17
x_3_5_0_5 0
x_3_5_1_0 0
x_3_5_1_1 0
x_3_5_1_2 0
x_3_5_1_3 0
x_3_5_1_4 0
x_3_5_1_5 0
x_3_5_2_0 0
x_3_5_2_1 0
x_3_5_2_2 0
x_3_5_2_3 0
x_3_5_2_4 0
x_3_5_2_5 -5.1933284062055662e-17
x_3_5_3_0 0
x_3_5_3_1 0
x_3_5_3_2 0
x_3_5_3_3 0
x_3_5_3_4 0
x_3_5_3_5 0
x_3_5_4_0 0
x_3_5_4_1 0
x_3_5_4_2 0
x_3_5_4_3 0
x_3_5_4_4 0
x_3_5_4_5 0
x_3_6_0_0 0
x_3_6_0_1 0
x_3_6_0_2 0
x_3_6_0_3 0
x_3_6_0_4 0
x_3_6_0_5 0
x_3_6_1_0 0
x_3_6_1_1 0
x_3_6_1_2 0
x_3_6_1_3 0
x_3_6_1_4 0
x_3_6_1_5 0
x_3_6_2_0 0
x_3_6_2_1 0
x_3_6_2_2 0
x_3_6_2_3 -1.3877787807814457e-17
x_3_6_2_4 -3.6901037780978641e-14
x_3_6_2_5 0
x_3_6_3_0 0
x_3_6_3_1 0
x_3_6_3_2 0
x_3_6_3_3 0
x_3_6_3_4 0
x_3_6_3_5 0
x_3_6_4_0 0
x_3_6_4_1 0
x_3_6_4_2 0
x_3_6_4_3 0
x_3_6_4_4 0
x_3_6_4_5 0
x_3_7_0_0 0
x_3_7_0_1 0
x_3_7_0_2 0
x_3_7_0_3 0
x_3_7_0_4 1.3877787807814457e-17
x_3_7_0_5 -1.8007730723246240e-14
x_3_7_1_0 0
x_3_7_1_1 0
x_3_7_1_2 0
x_3_7_1_3 0
x_3_7_1_4 0
x_3_7_1_5 0
x_3_7_2_0 0
x_3_7_2_1 0
x_3_7_2_2 0
x_3_7_2_3 0
x_3_7_2_4 -6.7709726714326735e-14
x_3_7_2_5 0
x_3_7_3_0 0
x_3_7_3_1 0
x_3_7_3_2 0
x_3_7_3_3 0
x_3_7_3_4 0
x_3_7_3_5 0
x_3_7_4_0 0
x_3_7_4_1 0
x_3_7_4_2 0
x_3_7_4_3 0
x_3_7_4_4 0
x_3_7_4_5 0
x_3_8_0_0 0
x_3_8_0_1 0
x_3_8_0_2 0
x_3_8_0_3 0
x_3_8_0_4 0
x_3_8_0_5 0
x_3_8_1_0 0
x_3_8_1_1 0
x_3_8_1_2 0
x_3_8_1_3 0
x_3_8_1_4 0
x_3_8_1_5 0
x_3_8_2_0 0
x_3_8_2_1 1.8229862064345070e-13
x_3_8_2_2 0
x_3_8_2_3 0
x_3_8_2_4 1.2463120813155371e-14
x_3_8_2_5 0
x_3_8_3_0 0
x_3_8_3_1 0
x_3_8_3_2 0
x_3_8_3_3 0
x_3_8_3_4 0
x_3_8_3_5 0
x_3_8_4_0 0
x_3_8_4_1 0
x_3_8_4_2 0
x_3_8_4_3 0
x_3_8_4_4 0
x_3_8_4_5 0
x_3_9_0_0 0
x_3_9_0_1 0
x_3_9_0_2 0
x_3_9_0_3 0
x_3_9_0_4 0
x_3_9_0_5 0
x_3_9_1_0 0
x_3_9_1_1 9.9999999999920863e-01
x_3_9_1_2 0
x_3_9_1_3 0
x_3_9_1_4 9.9999999999999956e-01
x_3_9_1_5 0
x_3_9_2_0 0
x_3_9_2_1 1.8229862064345070e-13
x_3_9_2_2 0
x_3_9_2_3 1
x_3_9_2_4 0
x_3_9_2_5 0
x_3_9_3_0 0
x_3_9_3_1 0
x_3_9_3_2 0
x_3_9_3_3 0
x_3_9_3_4 0
x_3_9_3_5 0
x_3_9_4_0 0
x_3_9_4_1 0
x_3_9_4_2 0
x_3_9_4_3 0
x_3_9_4_4 0
x_3_9_4_5 0
x_3_10_0_0 0
x_3_10_0_1 0
x_3_10_0_2 0
x_3_10_0_3 0
x_3_10_0_4 0
x_3_10_0_5 0
x_3_10_1_0 0
x_3_10_1_1 0
x_3_10_1_2 0
x_3_10_1_3 0
x_3_10_1_4 0
x_3_10_1_5 0
x_3_10_2_0 0
x_3_10_2_1 0
x_3_10_2_2 0
x_3_10_2_3 0
x_3_10_2_4 0
x_3_10_2_5 0
x_3_10_3_0 0
x_3_10_3_1 0
x_3_10_3_2 0
x_3_10_3_3 0
x_3_10_3_4 0
x_3_10_3_5 0
x_3_10_4_0 0
x_3_10_4_1 0
x_3_10_4_2 0
x_3_10_4_3 0
x_3_10_4_4 0
x_3_10_4_5 0
x_4_5_0_0 0
x_4_5_0_1 0
x_4_5_0_2 0
x_4_5_0_3 0
x_4_5_0_4 0
x_4_5_0_5 0
x_4_5_1_0 0
x_4_5_1_1 0
x_4_5_1_2 0
x_4_5_1_3 0
x_4_5_1_4 0
x_4_5_1_5 0
x_4_5_2_0 0
x_4_5_2_1 0
x_4_5_2_2 0
x_4_5_2_3 0
x_4_5_2_4 0
x_4_5_2_5 0
x_4_5_3_0 0
x_4_5_3_1 0
x_4_5_3_2 0
x_4_5_3_3 0
x_4_5_3_4 0
x_4_5_3_5 0
x_4_5_4_0 0
x_4_5_4_1 0
x_4_5_4_2 0
x_4_5_4_3 0
x_4_5_4_4 0
x_4_5_4_5 0
x_4_6_0_0 0
x_4_6_0_1 0
x_4_6_0_2 0
x_4_6_0_3 0
x_4_6_0_4 0
x_4_6_0_5 0
x_4_6_1_0 0
x_4_6_1_1 0
x_4_6_1_2 0
x_4_6_1_3 0
x_4_6_1_4 9.9999999999990663e-01
x_4_6_1_5 0
x_4_6_2_0 0
x_4_6_2_1 0
x_4_6_2_2 3.5741201664940547e-12
x_4_6_2_3 0
x_4_6_2_4 0
x_4_6_2_5 0
x_4_6_3_0 0
x_4_6_3_1 0
x_4_6_3_2 0
x_4_6_3_3 0
x_4_6_3_4 0
x_4_6_3_5 0
x_4_6_4_0 0
x_4_6_4_1 0
x_4_6_4_2 0
x_4_6_4_3 0
x_4_6_4_4 0
x_4_6_4_5 0
x_4_7_0_0 0
x_4_7_0_1 0
x_4_7_0_2 0
x_4_7_0_3 0
x_4_7_0_4 0
x_4_7_0_5 0
x_4_7_1_0 0
x_4_7_1_1 0
x_4_7_1_2 0
x_4_7_1_3 0
x_4_7_1_4 0
x_4_7_1_5 0
x_4_7_2_0 0
x_4_7_2_1 0
x_4_7_2_2 0
x_4_7_2_3 0
x_4_7_2_4 0
x_4_7_2_5 0
x_4_7_3_0 0
x_4_7_3_1 0
x_4_7_3_2 0
x_4_7_3_3 0
x_4_7_3_4 0
x_4_7_3_5 0
x_4_7_4_0 0
x_4_7_4_1 0
x_4_7_4_2 0
x_4_7_4_3 0
x_4_7_4_4 0
x_4_7_4_5 0
x_4_8_0_0 0
x_4_8_0_1 0
x_4_8_0_2 0
x_4_8_0_3 0
x_4_8_0_4 0
x_4_8_0_5 0
x_4_8_1_0 0
x_4_8_1_1 0
x_4_8_1_2 0
x_4_8_1_3 0
x_4_8_1_4 0
x_4_8_1_5 0
x_4_8_2_0 0
x_4_8_2_1 0
x_4_8_2_2 0
x_4_8_2_3 0
x_4_8_2_4 0
x_4_8_2_5 0
x_4_8_3_0 0
x_4_8_3_1 0
x_4_8_3_2 0
x_4_8_3_3 0
x_4_8_3_4 0
x_4_8_3_5 0
x_4_8_4_0 0
x_4_8_4_1 0
x_4_8_4_2 0
x_4_8_4_3 0
x_4_8_4_4 0
x_4_8_4_5 0
x_4_9_0_0 0
x_4_9_0_1 0
x_4_9_0_2 0
x_4_9_0_3 0
x_4_9_0_4 0
x_4_9_0_5 0
x_4_9_1_0 0
x_4_9_1_1 0
x_4_9_1_2 0
x_4_9_1_3 0
x_4_9_1_4 0
x_4_9_1_5 0
x_4_9_2_0 0
x_4_9_2_1 0
x_4_9_2_2 -3.5741236359410067e-12
x_4_9_2_3 0
x_4_9_2_4 0
x_4_9_2_5 0
x_4_9_3_0 0
x_4_9_3_1 0
x_4_9_3_2 0
x_4_9_3_3 0
x_4_9_3_4 0
x_4_9_3_5 0
x_4_9_4_0 0
x_4_9_4_1 0
x_4_9_4_2 0
x_4_9_4_3 0
x_4_9_4_4 0
x_4_9_4_5 0
x_4_10_0_0 0
x_4_10_0_1 0
x_4_10_0_2 0
x_4_10_0_3 0
x_4_10_0_4 0
x_4_10_0_5 0
x_4_10_1_0 0
x_4_10_1_1 0
x_4_10_1_2 0
x_4_10_1_3 0
x_4_10_1_4 -5.5511151231257827e-17
x_4_10_1_5 0
x_4_10_2_0 0
x_4_10_2_1 0
x_4_10_2_2 0
x_4_10_2_3 0
x_4_10_2_4 0
x_4_10_2_5 0
x_4_10_3_0 0
x_4_10_3_1 0
x_4_10_3_2 0
x_4_10_3_3 0
x_4_10_3_4 0
x_4_10_3_5 0
x_4_10_4_0 0
x_4_10_4_1 0
x_4_10_4_2 0
x_4_10_4_3 0
x_4_10_4_4 0
x_4_10_4_5 0
x_5_6_0_0 0
x_5_6_0_1 0
x_5_6_0_2 0
x_5_6_0_3 0
x_5_6_0_4 0
x_5_6_0_5 0
x_5_6_1_0 0
x_5_6_1_1 0
x_5_6_1_2 0
x_5_6_1_3 0
x_5_6_1_4 0
x_5_6_1_5 0
x_5_6_2_0 0
x_5_6_2_1 0
x_5_6_2_2 0
x_5_6_2_3 0
x_5_6_2_4 0
x_5_6_2_5 0
x_5_6_3_0 0
x_5_6_3_1 0
x_5_6_3_2 0
x_5_6_3_3 0
x_5_6_3_4 0
x_5_6_3_5 0
x_5_6_4_0 0
x_5_6_4_1 0
x_5_6_4_2 0
x_5_6_4_3 0
x_5_6_4_4 0
x_5_6_4_5 0
x_5_7_0_0 0
x_5_7_0_1 0
x_5_7_0_2 0
x_5_7_0_3 0
x_5_7_0_4 0
x_5_7_0_5 0
x_5_7_1_0 0
x_5_7_1_1 0
x_5_7_1_2 0
x_5_7_1_3 0
x_5_7_1_4 0
x_5_7_1_5 0
x_5_7_2_0 0
x_5_7_2_1 0
x_5_7_2_2 0
x_5_7_2_3 0
x_5_7_2_4 0
x_5_7_2_5 0
x_5_7_3_0 0
x_5_7_3_1 0
x_5_7_3_2 0
x_5_7_3_3 0
x_5_7_3_4 0
x_5_7_3_5 0
x_5_7_4_0 1.2646761116933844e-13
x_5_7_4_1 0
x_5_7_4_2 0
x_5_7_4_3 0
x_5_7_4_4 0
x_5_7_4_5 0
x_5_8_0_0 0
x_5_8_0_1 0
x_5_8_0_2 1
x_5_8_0_3 0
x_5_8_0_4 1.0000000000000002e+00
x_5_8_0_5 0
x_5_8_1_0 9.9999999999987232e-01
x_5_8_1_1 0
x_5_8_1_2 0
x_5_8_1_3 0
x_5_8_1_4 0
x_5_8_1_5 0
x_5_8_2_0 0
x_5_8_2_1 9.9999999999987255e-01
x_5_8_2_2 0
x_5_8_2_3 0
x_5_8_2_4 0
x_5_8_2_5 0
x_5_8_3_0 0
x_5_8_3_1 0
x_5_8_3_2 0
x_5_8_3_3 1
x_5_8_3_4 0
x_5_8_3_5 0
x_5_8_4_0 0
x_5_8_4_1 0
x_5_8_4_2 0
x_5_8_4_3 0
x_5_8_4_4 0
x_5_8_4_5 0
x_5_9_0_0 0
x_5_9_0_1 0
x_5_9_0_2 0
x_5_9_0_3 0
x_5_9_0_4 0
x_5_9_0_5 0
x_5_9_1_0 0
x_5_9_1_1 0
x_5_9_1_2 0
x_5_9_1_3 0
x_5_9_1_4 0
x_5_9_1_5 0
x_5_9_2_0 0
x_5_9_2_1 8.2073584040109893e-13
x_5_9_2_2 0
x_5_9_2_3 0
x_5_9_2_4 0
x_5_9_2_5 0
x_5_9_3_0 0
x_5_9_3_1 0
x_5_9_3_2 0
x_5_9_3_3 0
x_5_9_3_4 0
x_5_9_3_5 0
x_5_9_4_0 0
x_5_9_4_1 0
x_5_9_4_2 0
x_5_9_4_3 0
x_5_9_4_4 0
x_5_9_4_5 0
x_5_10_0_0 0
x_5_10_0_1 0
x_5_10_0_2 0
x_5_10_0_3 0
x_5_10_0_4 0
x_5_10_0_5 0
x_5_10_1_0 0
x_5_10_1_1 0
x_5_10_1_2 0
x_5_10_1_3 0
x_5_10_1_4 0
x_5_10_1_5 0
x_5_10_2_0 0
x_5_10_2_1 0
x_5_10_2_2 0
x_5_10_2_3 0
x_5_10_2_4 0
x_5_10_2_5 0
x_5_10_3_0 0
x_5_10_3_1 0
x_5_10_3_2 0
x_5_10_3_3 0
x_5_10_3_4 0
x_5_10_3_5 0
x_5_10_4_0 0
x_5_10_4_1 0
x_5_10_4_2 0
x_5_10_4_3 0
x_5_10_4_4 0
x_5_10_4_5 0
x_6_7_0_0 0
x_6_7_0_1 0
x_6_7_0_2 0
x_6_7_0_3 0
x_6_7_0_4 0
x_6_7_0_5 0
x_6_7_1_0 0
x_6_7_1_1 0
x_6_7_1_2 0
x_6_7_1_3 0
x_6_7_1_4 0
x_6_7_1_5 0
x_6_7_2_0 0
x_6_7_2_1 0
x_6_7_2_2 0
x_6_7_2_3 0
x_6_7_2_4 0
x_6_7_2_5 0
x_6_7_3_0 0
x_6_7_3_1 0
x_6_7_3_2 0
x_6_7_3_3 0
x_6_7_3_4 2.2773449792623524e-14
x_6_7_3_5 8.4567769453869346e-17
x_6_7_4_0 0
x_6_7_4_1 0
x_6_7_4_2 0
x_6_7_4_3 0
x_6_7_4_4 0
x_6_7_4_5 0
x_6_8_0_0 0
x_6_8_0_1 0
x_6_8_0_2 0
x_6_8_0_3 0
x_6_8_0_4 0
x_6_8_0_5 0
x_6_8_1_0 0
x_6_8_1_1 0
x_6_8_1_2 0
x_6_8_1_3 0
x_6_8_1_4 0
x_6_8_1_5 0
x_6_8_2_0 0
x_6_8_2_1 0
x_6_8_2_2 0
x_6_8_2_3 0
x_6_8_2_4 5.6066262743570405e-14
x_6_8_2_5 0
x_6_8_3_0 0
x_6_8_3_1 0
x_6_8_3_2 0
x_6_8_3_3 0
x_6_8_3_4 3.6692870963861424e-14
x_6_8_3_5 0
x_6_8_4_0 0
x_6_8_4_1 0
x_6_8_4_2 0
x_6_8_4_3 0
x_6_8_4_4 0
x_6_8_4_5 0
x_6_9_0_0 0
x_6_9_0_1 0
x_6_9_0_2 0
x_6_9_0_3 0
x_6_9_0_4 0
x_6_9_0_5 0
x_6_9_1_0 0
x_6_9_1_1 0
x_6_9_1_2 0
x_6_9_1_3 0
x_6_9_1_4 9.9999999999990641e-01
x_6_9_1_5 0
x_6_9_2_0 0
x_6_9_2_1 0
x_6_9_2_2 3.5741201664940547e-12
x_6_9_2_3 0
x_6_9_2_4 0
x_6_9_2_5 0
x_6_9_3_0 0
x_6_9_3_1 0
x_6_9_3_2 0
x_6_9_3_3 0
x_6_9_3_4 0
x_6_9_3_5 -8.4567769453869346e-17
x_6_9_4_0 0
x_6_9_4_1 0
x_6_9_4_2 0
x_6_9_4_3 0
x_6_9_4_4 0
x_6_9_4_5 0
x_6_10_0_0 0
x_6_10_0_1 0
x_6_10_0_2 0
x_6_10_0_3 1
x_6_10_0_4 0
x_6_10_0_5 0
x_6_10_1_0 0
x_6_10_1_1 0
x_6_10_1_2 0
x_6_10_1_3 0
x_6_10_1_4 0
x_6_10_1_5 0
x_6_10_2_0 0
x_6_10_2_1 0
x_6_10_2_2 0
x_6_10_2_3 0
x_6_10_2_4 0
x_6_10_2_5 0
x_6_10_3_0 0
x_6_10_3_1 1
x_6_10_3_2 0
x_6_10_3_3 0
x_6_10_3_4 -2.7755575615628914e-17
x_6_10_3_5 0
x_6_10_4_0 0
x_6_10_4_1 0
x_6_10_4_2 0
x_6_10_4_3 0
x_6_10_4_4 0
x_6_10_4_5 0
x_7_8_0_0 0
x_7_8_0_1 0
x_7_8_0_2 0
x_7_8_0_3 0
x_7_8_0_4 0
x_7_8_0_5 0
x_7_8_1_0 0
x_7_8_1_1 0
x_7_8_1_2 0
x_7_8_1_3 0
x_7_8_1_4 0
x_7_8_1_5 0
x_7_8_2_0 0
x_7_8_2_1 0
x_7_8_2_2 0
x_7_8_2_3 0
x_7_8_2_4 0
x_7_8_2_5 0
x_7_8_3_0 0
x_7_8_3_1 0
x_7_8_3_2 0
x_7_8_3_3 0
x_7_8_3_4 0
x_7_8_3_5 0
x_7_8_4_0 0
x_7_8_4_1 0
x_7_8_4_2 0
x_7_8_4_3 0
x_7_8_4_4 0
x_7_8_4_5 0
x_7_9_0_0 0
x_7_9_0_1 0
x_7_9_0_2 0
x_7_9_0_3 0
x_7_9_0_4 0
x_7_9_0_5 0
x_7_9_1_0 0
x_7_9_1_1 0
x_7_9_1_2 0
x_7_9_1_3 0
x_7_9_1_4 0
x_7_9_1_5 0
x_7_9_2_0 0
x_7_9_2_1 0
x_7_9_2_2 0
x_7_9_2_3 0
x_7_9_2_4 0
x_7_9_2_5 0
x_7_9_3_0 0
x_7_9_3_1 0
x_7_9_3_2 0
x_7_9_3_3 0
x_7_9_3_4 0
x_7_9_3_5 8.4567769453869346e-17
x_7_9_4_0 0
x_7_9_4_1 0
x_7_9_4_2 0
x_7_9_4_3 0
x_7_9_4_4 0
x_7_9_4_5 0
x_7_10_0_0 0
x_7_10_0_1 0
x_7_10_0_2 0
x_7_10_0_3 0
x_7_10_0_4 0
x_7_10_0_5 0
x_7_10_1_0 0
x_7_10_1_1 0
x_7_10_1_2 0
x_7_10_1_3 0
x_7_10_1_4 0
x_7_10_1_5 0
x_7_10_2_0 0
x_7_10_2_1 0
x_7_10_2_2 0
x_7_10_2_3 0
x_7_10_2_4 0
x_7_10_2_5 0
x_7_10_3_0 0
x_7_10_3_1 0
x_7_10_3_2 0
x_7_10_3_3 0
x_7_10_3_4 0
x_7_10_3_5 0
x_7_10_4_0 0
x_7_10_4_1 0
x_7_10_4_2 0
x_7_10_4_3 0
x_7_10_4_4 0
x_7_10_4_5 0
x_8_9_0_0 0
x_8_9_0_1 0
x_8_9_0_2 0
x_8_9_0_3 0
x_8_9_0_4 0
x_8_9_0_5 0
x_8_9_1_0 1.2811973704174306e-13
x_8_9_1_1 0
x_8_9_1_2 0
x_8_9_1_3 0
x_8_9_1_4 0
x_8_9_1_5 0
x_8_9_2_0 0
x_8_9_2_1 0
x_8_9_2_2 0
x_8_9_2_3 0
x_8_9_2_4 0
x_8_9_2_5 0
x_8_9_3_0 0
x_8_9_3_1 0
x_8_9_3_2 0
x_8_9_3_3 0
x_8_9_3_4 0
x_8_9_3_5 0
x_8_9_4_0 0
x_8_9_4_1 0
x_8_9_4_2 0
x_8_9_4_3 0
x_8_9_4_4 0
x_8_9_4_5 0
x_8_10_0_0 0
x_8_10_0_1 0
x_8_10_0_2 0
x_8_10_0_3 0
x_8_10_0_4 0
x_8_10_0_5 0
x_8_10_1_0 0
x_8_10_1_1 0
x_8_10_1_2 0
x_8_10_1_3 0
x_8_10_1_4 0
x_8_10_1_5 0
x_8_10_2_0 0
x_8_10_2_1 0
x_8_10_2_2 0
x_8_10_2_3 0
x_8_10_2_4 0
x_8_10_2_5 0
x_8_10_3_0 0
x_8_10_3_1 0
x_8_10_3_2 0
x_8_10_3_3 0
x_8_10_3_4 -2.7755575615628914e-17
x_8_10_3_5 0
x_8_10_4_0 0
x_8_10_4_1 0
x_8_10_4_2 0
x_8_10_4_3 0
x_8_10_4_4 0
x_8_10_4_5 0
x_9_10_0_0 0
x_9_10_0_1 0
x_9_10_0_2 0
x_9_10_0_3 0
x_9_10_0_4 0
x_9_10_0_5 0
x_9_10_1_0 0
x_9_10_1_1 0
x_9_10_1_2 0
x_9_10_1_3 0
x_9_10_1_4 0
x_9_10_1_5 0
x_9_10_2_0 0
x_9_10_2_1 0
x_9_10_2_2 0
x_9_10_2_3 0
x_9_10_2_4 0
x_9_10_2_5 0
x_9_10_3_0 0
x_9_10_3_1 0
x_9_10_3_2 0
x_9_10_3_3 0
x_9_10_3_4 0
x_9_10_3_5 0
x_9_10_4_0 0
x_9_10_4_1 0
x_9_10_4_2 0
x_9_10_4_3 0
x_9_10_4_4 0
x_9_10_4_5 0
